c Random generated cnf formula, satisfiable: false
p cnf 10 50
-9 -1 3 0
-10 6 1 0
10 -2 9 0
6 -4 10 0
5 6 2 0
-4 3 9 0
-6 -2 -7 0
6 -3 -9 0
-1 2 5 0
3 4 -7 0
3 7 9 0
10 3 -6 0
1 -3 8 0
9 -2 8 0
-9 -8 10 0
2 -9 -5 0
8 -9 2 0
1 6 10 0
-5 -7 -8 0
5 -7 6 0
-8 4 9 0
-5 1 -2 0
-10 -2 6 0
8 9 -10 0
-9 6 1 0
10 -4 -3 0
3 2 8 0
-1 7 -6 0
3 2 -8 0
3 5 -9 0
-4 -10 -8 0
-10 -1 -3 0
-7 -6 -1 0
1 -4 -10 0
-4 8 7 0
6 2 1 0
9 -8 4 0
-1 6 -10 0
8 -1 2 0
7 5 8 0
-10 -9 -8 0
9 2 -5 0
7 -3 -8 0
-2 10 7 0
9 -5 8 0
4 -10 2 0
5 3 -2 0
3 5 -10 0
-10 -6 9 0
-8 -4 1 0
